c Arquivo convertido de nos1.mtx
p edge 237 390
e 1 4
e 2 5
e 2 6
e 3 5
e 3 6
e 4 7
e 5 8
e 5 9
e 6 8
e 6 9
e 7 10
e 8 11
e 8 12
e 9 11
e 9 12
e 10 13
e 11 14
e 11 15
e 12 14
e 12 15
e 13 16
e 14 17
e 14 18
e 15 17
e 15 18
e 16 19
e 17 20
e 17 21
e 18 20
e 18 21
e 19 22
e 20 23
e 20 24
e 21 23
e 21 24
e 22 25
e 23 26
e 23 27
e 24 26
e 24 27
e 25 28
e 26 29
e 26 30
e 27 29
e 27 30
e 28 31
e 29 32
e 29 33
e 30 32
e 30 33
e 31 34
e 32 35
e 32 36
e 33 35
e 33 36
e 34 37
e 35 38
e 35 39
e 36 38
e 36 39
e 37 40
e 38 41
e 38 42
e 39 41
e 39 42
e 40 43
e 41 44
e 41 45
e 42 44
e 42 45
e 43 46
e 44 47
e 44 48
e 45 47
e 45 48
e 46 49
e 47 50
e 47 51
e 48 50
e 48 51
e 49 52
e 50 53
e 50 54
e 51 53
e 51 54
e 52 55
e 53 56
e 53 57
e 54 56
e 54 57
e 55 58
e 56 59
e 56 60
e 57 59
e 57 60
e 58 61
e 59 62
e 59 63
e 60 62
e 60 63
e 61 64
e 62 65
e 62 66
e 63 65
e 63 66
e 64 67
e 65 68
e 65 69
e 66 68
e 66 69
e 67 70
e 68 71
e 68 72
e 69 71
e 69 72
e 70 73
e 71 74
e 71 75
e 72 74
e 72 75
e 73 76
e 74 77
e 74 78
e 75 77
e 75 78
e 76 79
e 77 80
e 77 81
e 78 80
e 78 81
e 79 82
e 80 83
e 80 84
e 81 83
e 81 84
e 82 85
e 83 86
e 83 87
e 84 86
e 84 87
e 85 88
e 86 89
e 86 90
e 87 89
e 87 90
e 88 91
e 89 92
e 89 93
e 90 92
e 90 93
e 91 94
e 92 95
e 92 96
e 93 95
e 93 96
e 94 97
e 95 98
e 95 99
e 96 98
e 96 99
e 97 100
e 98 101
e 98 102
e 99 101
e 99 102
e 100 103
e 101 104
e 101 105
e 102 104
e 102 105
e 103 106
e 104 107
e 104 108
e 105 107
e 105 108
e 106 109
e 107 110
e 107 111
e 108 110
e 108 111
e 109 112
e 110 113
e 110 114
e 111 113
e 111 114
e 112 115
e 113 116
e 113 117
e 114 116
e 114 117
e 115 118
e 116 119
e 116 120
e 117 119
e 117 120
e 118 121
e 119 122
e 119 123
e 120 122
e 120 123
e 121 124
e 122 125
e 122 126
e 123 125
e 123 126
e 124 127
e 125 128
e 125 129
e 126 128
e 126 129
e 127 130
e 128 131
e 128 132
e 129 131
e 129 132
e 130 133
e 131 134
e 131 135
e 132 134
e 132 135
e 133 136
e 134 137
e 134 138
e 135 137
e 135 138
e 136 139
e 137 140
e 137 141
e 138 140
e 138 141
e 139 142
e 140 143
e 140 144
e 141 143
e 141 144
e 142 145
e 143 146
e 143 147
e 144 146
e 144 147
e 145 148
e 146 149
e 146 150
e 147 149
e 147 150
e 148 151
e 149 152
e 149 153
e 150 152
e 150 153
e 151 154
e 152 155
e 152 156
e 153 155
e 153 156
e 154 157
e 155 158
e 155 159
e 156 158
e 156 159
e 157 160
e 158 161
e 158 162
e 159 161
e 159 162
e 160 163
e 161 164
e 161 165
e 162 164
e 162 165
e 163 166
e 164 167
e 164 168
e 165 167
e 165 168
e 166 169
e 167 170
e 167 171
e 168 170
e 168 171
e 169 172
e 170 173
e 170 174
e 171 173
e 171 174
e 172 175
e 173 176
e 173 177
e 174 176
e 174 177
e 175 178
e 176 179
e 176 180
e 177 179
e 177 180
e 178 181
e 179 182
e 179 183
e 180 182
e 180 183
e 181 184
e 182 185
e 182 186
e 183 185
e 183 186
e 184 187
e 185 188
e 185 189
e 186 188
e 186 189
e 187 190
e 188 191
e 188 192
e 189 191
e 189 192
e 190 193
e 191 194
e 191 195
e 192 194
e 192 195
e 193 196
e 194 197
e 194 198
e 195 197
e 195 198
e 196 199
e 197 200
e 197 201
e 198 200
e 198 201
e 199 202
e 200 203
e 200 204
e 201 203
e 201 204
e 202 205
e 203 206
e 203 207
e 204 206
e 204 207
e 205 208
e 206 209
e 206 210
e 207 209
e 207 210
e 208 211
e 209 212
e 209 213
e 210 212
e 210 213
e 211 214
e 212 215
e 212 216
e 213 215
e 213 216
e 214 217
e 215 218
e 215 219
e 216 218
e 216 219
e 217 220
e 218 221
e 218 222
e 219 221
e 219 222
e 220 223
e 221 224
e 221 225
e 222 224
e 222 225
e 223 226
e 224 227
e 224 228
e 225 227
e 225 228
e 226 229
e 227 230
e 227 231
e 228 230
e 228 231
e 229 232
e 230 233
e 230 234
e 231 233
e 231 234
e 232 235
e 233 236
e 233 237
e 234 236
e 234 237
